Cost: 589
0-43-42-41-23-24-49-16-0
0-21-47-48-29-45-4-0
0-6-33-1-22-28-2-0
0-17-3-44-32-40-0
0-26-7-35-8-46-34-0
0-39-31-25-9-12-0
0-27-13-15-20-37-30-0
0-19-14-11-38-10-0
Cost: 589
0-34-46-8-35-7-26-0
0-30-37-20-15-13-27-0
0-43-42-41-23-24-49-16-0
0-19-14-11-38-10-0
0-39-31-25-9-12-0
0-4-45-29-48-47-21-0
0-6-33-1-22-28-2-0
0-40-32-44-3-17-0
Cost: 589
0-43-42-41-23-24-49-16-0
0-21-47-48-29-45-4-0
0-6-33-1-22-28-2-0
0-17-3-44-32-40-0
0-26-7-35-8-46-34-0
0-39-31-25-9-12-0
0-27-13-15-20-37-30-0
0-19-14-11-38-10-0
Cost: 591
0-27-13-15-37-47-21-0
0-40-9-32-44-17-0
0-12-39-31-25-18-3-0
0-4-45-29-48-30-0
0-26-7-35-8-46-34-0
0-19-14-11-38-10-0
0-16-49-24-23-41-42-43-0
0-2-28-22-1-33-6-0
Cost: 591
0-21-47-37-15-13-27-0
0-17-40-32-9-39-0
0-26-7-35-8-46-34-0
0-6-33-1-22-28-2-0
0-16-49-24-23-41-42-43-0
0-19-14-11-38-10-0
0-4-45-29-48-30-0
0-12-31-25-18-44-3-0
Cost: 589
0-26-7-35-8-46-34-0
0-43-42-41-23-24-49-16-0
0-12-9-25-31-39-0
0-40-32-44-3-17-0
0-21-47-48-29-45-4-0
0-30-37-20-15-13-27-0
0-2-28-22-1-33-6-0
0-10-38-11-14-19-0
Cost: 589
0-40-32-44-3-17-0
0-16-49-24-23-41-42-43-0
0-6-33-1-22-28-2-0
0-30-37-20-15-13-27-0
0-9-25-31-39-12-0
0-19-14-11-38-10-0
0-26-7-35-8-46-34-0
0-21-47-48-29-45-4-0
Cost: 589
0-40-32-44-3-17-0
0-16-49-24-23-41-42-43-0
0-6-33-1-22-28-2-0
0-30-37-20-15-13-27-0
0-9-25-31-39-12-0
0-19-14-11-38-10-0
0-26-7-35-8-46-34-0
0-21-47-48-29-45-4-0
Cost: 589
0-40-32-44-3-17-0
0-16-49-24-23-41-42-43-0
0-6-33-1-22-28-2-0
0-30-37-20-15-13-27-0
0-9-25-31-39-12-0
0-19-14-11-38-10-0
0-26-7-35-8-46-34-0
0-21-47-48-29-45-4-0
Cost: 589
0-40-32-44-3-17-0
0-16-49-24-23-41-42-43-0
0-6-33-1-22-28-2-0
0-30-37-20-15-13-27-0
0-9-25-31-39-12-0
0-19-14-11-38-10-0
0-26-7-35-8-46-34-0
0-21-47-48-29-45-4-0
Cost: 589
0-21-47-48-29-45-4-0
0-10-38-11-14-19-0
0-6-33-1-22-28-2-0
0-30-37-20-15-13-27-0
0-17-3-44-32-40-0
0-16-49-24-23-41-42-43-0
0-9-25-31-39-12-0
0-34-46-8-35-7-26-0
Cost: 589
0-10-38-11-14-19-0
0-30-37-20-15-13-27-0
0-21-47-48-29-45-4-0
0-12-9-25-31-39-0
0-16-49-24-23-41-42-43-0
0-2-28-22-1-33-6-0
0-26-7-35-8-46-34-0
0-17-3-44-32-40-0
Cost: 589
0-21-47-48-29-45-4-0
0-10-38-11-14-19-0
0-6-33-1-22-28-2-0
0-30-37-20-15-13-27-0
0-17-3-44-32-40-0
0-16-49-24-23-41-42-43-0
0-9-25-31-39-12-0
0-34-46-8-35-7-26-0
Cost: 589
0-30-37-20-15-13-27-0
0-2-28-22-1-33-6-0
0-43-42-41-23-24-49-16-0
0-10-38-11-14-19-0
0-40-32-44-3-17-0
0-12-9-25-31-39-0
0-26-7-35-8-46-34-0
0-4-45-29-48-47-21-0
Cost: 589
0-21-47-48-29-45-4-0
0-10-38-11-14-19-0
0-6-33-1-22-28-2-0
0-30-37-20-15-13-27-0
0-17-3-44-32-40-0
0-16-49-24-23-41-42-43-0
0-9-25-31-39-12-0
0-34-46-8-35-7-26-0
Cost: 589
0-21-47-48-29-45-4-0
0-10-38-11-14-19-0
0-6-33-1-22-28-2-0
0-30-37-20-15-13-27-0
0-17-3-44-32-40-0
0-16-49-24-23-41-42-43-0
0-9-25-31-39-12-0
0-34-46-8-35-7-26-0
Cost: 591
0-19-14-11-38-10-0
0-21-47-37-15-13-27-0
0-4-45-29-48-30-0
0-3-18-25-31-39-12-0
0-6-33-1-22-28-2-0
0-16-49-24-23-41-42-43-0
0-34-46-8-35-7-26-0
0-17-44-32-9-40-0
Cost: 589
0-40-32-44-3-17-0
0-43-42-41-23-24-49-16-0
0-30-37-20-15-13-27-0
0-19-14-11-38-10-0
0-2-28-22-1-33-6-0
0-12-9-25-31-39-0
0-21-47-48-29-45-4-0
0-26-7-35-8-46-34-0
Cost: 589
0-30-37-20-15-13-27-0
0-40-32-44-3-17-0
0-26-7-35-8-46-34-0
0-43-42-41-23-24-49-16-0
0-12-9-25-31-39-0
0-4-45-29-48-47-21-0
0-2-28-22-1-33-6-0
0-19-14-11-38-10-0
Cost: 589
0-6-33-1-22-28-2-0
0-39-31-25-9-12-0
0-43-42-41-23-24-49-16-0
0-30-37-20-15-13-27-0
0-34-46-8-35-7-26-0
0-19-14-11-38-10-0
0-40-32-44-3-17-0
0-4-45-29-48-47-21-0
Cost: 589
0-21-47-48-29-45-4-0
0-27-13-15-20-37-30-0
0-40-32-44-3-17-0
0-10-38-11-14-19-0
0-2-28-22-1-33-6-0
0-26-7-35-8-46-34-0
0-12-39-31-25-9-0
0-43-42-41-23-24-49-16-0
Cost: 589
0-21-47-48-29-45-4-0
0-27-13-15-20-37-30-0
0-40-32-44-3-17-0
0-10-38-11-14-19-0
0-2-28-22-1-33-6-0
0-26-7-35-8-46-34-0
0-12-39-31-25-9-0
0-43-42-41-23-24-49-16-0
Cost: 591
0-26-7-35-8-46-34-0
0-12-39-31-25-18-3-0
0-17-44-32-9-40-0
0-19-14-11-38-10-0
0-43-42-41-23-24-49-16-0
0-30-48-29-45-4-0
0-2-28-22-1-33-6-0
0-27-13-15-37-47-21-0
Cost: 589
0-21-47-48-29-45-4-0
0-27-13-15-20-37-30-0
0-40-32-44-3-17-0
0-10-38-11-14-19-0
0-2-28-22-1-33-6-0
0-26-7-35-8-46-34-0
0-12-39-31-25-9-0
0-43-42-41-23-24-49-16-0
Cost: 589
0-40-32-44-3-17-0
0-43-42-41-23-24-49-16-0
0-30-37-20-15-13-27-0
0-19-14-11-38-10-0
0-2-28-22-1-33-6-0
0-12-9-25-31-39-0
0-21-47-48-29-45-4-0
0-26-7-35-8-46-34-0
Cost: 589
0-4-45-29-48-47-21-0
0-19-14-11-38-10-0
0-26-7-35-8-46-34-0
0-17-3-44-32-40-0
0-39-31-25-9-12-0
0-6-33-1-22-28-2-0
0-43-42-41-23-24-49-16-0
0-27-13-15-20-37-30-0
Cost: 589
0-34-46-8-35-7-26-0
0-21-47-48-29-45-4-0
0-17-3-44-32-40-0
0-27-13-15-20-37-30-0
0-16-49-24-23-41-42-43-0
0-39-31-25-9-12-0
0-6-33-1-22-28-2-0
0-19-14-11-38-10-0
Cost: 598
0-40-32-44-3-17-0
0-14-11-38-10-26-0
0-12-39-31-25-9-0
0-4-48-21-47-29-45-0
0-30-37-20-15-13-27-0
0-7-35-19-8-34-46-0
0-43-42-41-23-24-49-16-0
0-2-28-22-1-33-6-0
Cost: 597
0-19-14-11-38-10-0
0-30-21-47-48-45-0
0-7-35-8-46-34-4-0
0-6-33-1-22-28-2-0
0-26-31-25-18-44-17-0
0-16-49-24-23-41-42-43-0
0-12-39-9-32-40-0
0-27-13-15-37-5-29-0
Cost: 589
0-26-7-35-8-46-34-0
0-21-47-48-29-45-4-0
0-40-32-44-3-17-0
0-27-13-15-20-37-30-0
0-6-33-1-22-28-2-0
0-19-14-11-38-10-0
0-43-42-41-23-24-49-16-0
0-12-39-31-25-9-0
Cost: 589
0-10-38-11-14-19-0
0-6-33-1-22-28-2-0
0-39-31-25-9-12-0
0-43-42-41-23-24-49-16-0
0-40-32-44-3-17-0
0-30-37-20-15-13-27-0
0-26-7-35-8-46-34-0
0-4-45-29-48-47-21-0
